
Gurobi 11.0.0 (mac64[arm]) logging started Fri Apr 19 16:16:08 2024

Set parameter LogFile to value "GurobiLogs/blogger_2.txt"
Set parameter TimeLimit to value 3600
Unknown variable 'd[0]' in MIP start 0 - ignored
Unknown variable 'a[V1_high,0]' in MIP start 0 - ignored
Unknown variable 'a[V1_low,0]' in MIP start 0 - ignored
Unknown variable 'a[V1_medium,0]' in MIP start 0 - ignored
Unknown variable 'a[V2_left,0]' in MIP start 0 - ignored
Unknown variable 'a[V2_middle,0]' in MIP start 0 - ignored
Unknown variable 'a[V2_right,0]' in MIP start 0 - ignored
Unknown variable 'a[V3_impression,0]' in MIP start 0 - ignored
Unknown variable 'a[V3_news,0]' in MIP start 0 - ignored
Unknown variable 'a[V3_political,0]' in MIP start 0 - ignored
Unknown variable 'a[V3_scientific,0]' in MIP start 0 - ignored
Unknown variable 'a[V3_tourism,0]' in MIP start 0 - ignored
Unknown variable 'a[V4_yes,0]' in MIP start 0 - ignored
Unknown variable 'a[V5_yes,0]' in MIP start 0 - ignored
Unknown variable 'z[12,1]' in MIP start 0 - ignored
Unknown variable 'z[12,2]' in MIP start 0 - ignored
Unknown variable 'z[53,1]' in MIP start 0 - ignored
Unknown variable 'z[53,2]' in MIP start 0 - ignored
Unknown variable 'z[87,1]' in MIP start 0 - ignored
Unknown variable 'z[87,2]' in MIP start 0 - ignored
Unknown variable 'z[54,1]' in MIP start 0 - ignored
Unknown variable 'z[54,2]' in MIP start 0 - ignored
Unknown variable 'z[95,1]' in MIP start 0 - ignored
Unknown variable 'z[95,2]' in MIP start 0 - ignored
Unknown variable 'z[32,1]' in MIP start 0 - ignored
Unknown variable 'z[32,2]' in MIP start 0 - ignored
Unknown variable 'z[19,1]' in MIP start 0 - ignored
Unknown variable 'z[19,2]' in MIP start 0 - ignored
Unknown variable 'z[26,1]' in MIP start 0 - ignored
Unknown variable 'z[26,2]' in MIP start 0 - ignored
Unknown variable 'z[60,1]' in MIP start 0 - ignored
Unknown variable 'z[60,2]' in MIP start 0 - ignored
Unknown variable 'z[55,1]' in MIP start 0 - ignored
Unknown variable 'z[55,2]' in MIP start 0 - ignored
Unknown variable 'z[9,1]' in MIP start 0 - ignored
Unknown variable 'z[9,2]' in MIP start 0 - ignored
Unknown variable 'z[96,1]' in MIP start 0 - ignored
Unknown variable 'z[96,2]' in MIP start 0 - ignored
Unknown variable 'z[17,1]' in MIP start 0 - ignored
Unknown variable 'z[17,2]' in MIP start 0 - ignored
Unknown variable 'z[59,1]' in MIP start 0 - ignored
Unknown variable 'z[59,2]' in MIP start 0 - ignored
Unknown variable 'z[57,1]' in MIP start 0 - ignored
Unknown variable 'z[57,2]' in MIP start 0 - ignored
Unknown variable 'z[41,1]' in MIP start 0 - ignored
Unknown variable 'z[41,2]' in MIP start 0 - ignored
Unknown variable 'z[64,1]' in MIP start 0 - ignored
Unknown variable 'z[64,2]' in MIP start 0 - ignored
Unknown variable 'z[45,1]' in MIP start 0 - ignored
Unknown variable 'z[45,2]' in MIP start 0 - ignored
Unknown variable 'z[97,1]' in MIP start 0 - ignored
Unknown variable 'z[97,2]' in MIP start 0 - ignored
Unknown variable 'z[8,1]' in MIP start 0 - ignored
Unknown variable 'z[8,2]' in MIP start 0 - ignored
Unknown variable 'z[71,1]' in MIP start 0 - ignored
Unknown variable 'z[71,2]' in MIP start 0 - ignored
Unknown variable 'z[94,1]' in MIP start 0 - ignored
Unknown variable 'z[94,2]' in MIP start 0 - ignored
Unknown variable 'z[90,1]' in MIP start 0 - ignored
Unknown variable 'z[90,2]' in MIP start 0 - ignored
Unknown variable 'z[98,1]' in MIP start 0 - ignored
Unknown variable 'z[98,2]' in MIP start 0 - ignored
Unknown variable 'z[86,1]' in MIP start 0 - ignored
Unknown variable 'z[86,2]' in MIP start 0 - ignored
Unknown variable 'z[80,1]' in MIP start 0 - ignored
Unknown variable 'z[80,2]' in MIP start 0 - ignored
Unknown variable 'z[50,1]' in MIP start 0 - ignored
Unknown variable 'z[50,2]' in MIP start 0 - ignored
Unknown variable 'z[52,1]' in MIP start 0 - ignored
Unknown variable 'z[52,2]' in MIP start 0 - ignored
Unknown variable 'z[66,1]' in MIP start 0 - ignored
Unknown variable 'z[66,2]' in MIP start 0 - ignored
Unknown variable 'z[88,1]' in MIP start 0 - ignored
Unknown variable 'z[88,2]' in MIP start 0 - ignored
Unknown variable 'z[70,1]' in MIP start 0 - ignored
Unknown variable 'z[70,2]' in MIP start 0 - ignored
Unknown variable 'z[46,1]' in MIP start 0 - ignored
Unknown variable 'z[46,2]' in MIP start 0 - ignored
Unknown variable 'z[68,1]' in MIP start 0 - ignored
Unknown variable 'z[68,2]' in MIP start 0 - ignored
Unknown variable 'z[69,1]' in MIP start 0 - ignored
Unknown variable 'z[69,2]' in MIP start 0 - ignored
Unknown variable 'z[81,1]' in MIP start 0 - ignored
Unknown variable 'z[81,2]' in MIP start 0 - ignored
Unknown variable 'z[58,1]' in MIP start 0 - ignored
Unknown variable 'z[58,2]' in MIP start 0 - ignored
Unknown variable 'z[33,1]' in MIP start 0 - ignored
Unknown variable 'z[33,2]' in MIP start 0 - ignored
Unknown variable 'z[38,1]' in MIP start 0 - ignored
Unknown variable 'z[38,2]' in MIP start 0 - ignored
Unknown variable 'z[51,1]' in MIP start 0 - ignored
Unknown variable 'z[51,2]' in MIP start 0 - ignored
Unknown variable 'z[42,1]' in MIP start 0 - ignored
Unknown variable 'z[42,2]' in MIP start 0 - ignored
Unknown variable 'z[4,1]' in MIP start 0 - ignored
Unknown variable 'z[4,2]' in MIP start 0 - ignored
Unknown variable 'z[67,1]' in MIP start 0 - ignored
Unknown variable 'z[67,2]' in MIP start 0 - ignored
Unknown variable 'z[39,1]' in MIP start 0 - ignored
Unknown variable 'z[39,2]' in MIP start 0 - ignored
Unknown variable 'z[37,1]' in MIP start 0 - ignored
Unknown variable 'z[37,2]' in MIP start 0 - ignored
Unknown variable 'z[20,1]' in MIP start 0 - ignored
Unknown variable 'z[20,2]' in MIP start 0 - ignored
Unknown variable 'z[31,1]' in MIP start 0 - ignored
Unknown variable 'z[31,2]' in MIP start 0 - ignored
Unknown variable 'z[63,1]' in MIP start 0 - ignored
Unknown variable 'z[63,2]' in MIP start 0 - ignored
Unknown variable 'z[47,1]' in MIP start 0 - ignored
Unknown variable 'z[47,2]' in MIP start 0 - ignored
Unknown variable 'z[85,1]' in MIP start 0 - ignored
Unknown variable 'z[85,2]' in MIP start 0 - ignored
Unknown variable 'z[93,1]' in MIP start 0 - ignored
Unknown variable 'z[93,2]' in MIP start 0 - ignored
Unknown variable 'z[49,1]' in MIP start 0 - ignored
Unknown variable 'z[49,2]' in MIP start 0 - ignored
Unknown variable 'z[34,1]' in MIP start 0 - ignored
Unknown variable 'z[34,2]' in MIP start 0 - ignored
Unknown variable 'z[7,1]' in MIP start 0 - ignored
Unknown variable 'z[7,2]' in MIP start 0 - ignored
Unknown variable 'z[75,1]' in MIP start 0 - ignored
Unknown variable 'z[75,2]' in MIP start 0 - ignored
Unknown variable 'z[82,1]' in MIP start 0 - ignored
Unknown variable 'z[82,2]' in MIP start 0 - ignored
Unknown variable 'z[43,1]' in MIP start 0 - ignored
Unknown variable 'z[43,2]' in MIP start 0 - ignored
Unknown variable 'z[22,1]' in MIP start 0 - ignored
Unknown variable 'z[22,2]' in MIP start 0 - ignored
Unknown variable 'z[72,1]' in MIP start 0 - ignored
Unknown variable 'z[72,2]' in MIP start 0 - ignored
Unknown variable 'z[15,1]' in MIP start 0 - ignored
Unknown variable 'z[15,2]' in MIP start 0 - ignored
Unknown variable 'z[40,1]' in MIP start 0 - ignored
Unknown variable 'z[40,2]' in MIP start 0 - ignored
Unknown variable 'l[1]' in MIP start 0 - ignored
Unknown variable 'l[2]' in MIP start 0 - ignored
Unknown variable 'Beta[V1_high,1]' in MIP start 0 - ignored
Unknown variable 'Beta[V1_high,2]' in MIP start 0 - ignored
Unknown variable 'Beta[V1_low,1]' in MIP start 0 - ignored
Unknown variable 'Beta[V1_low,2]' in MIP start 0 - ignored
Unknown variable 'Beta[V1_medium,1]' in MIP start 0 - ignored
Unknown variable 'Beta[V1_medium,2]' in MIP start 0 - ignored
Unknown variable 'Beta[V2_left,1]' in MIP start 0 - ignored
Unknown variable 'Beta[V2_left,2]' in MIP start 0 - ignored
Unknown variable 'Beta[V2_middle,1]' in MIP start 0 - ignored
Unknown variable 'Beta[V2_middle,2]' in MIP start 0 - ignored
Unknown variable 'Beta[V2_right,1]' in MIP start 0 - ignored
Unknown variable 'Beta[V2_right,2]' in MIP start 0 - ignored
Unknown variable 'Beta[V3_impression,1]' in MIP start 0 - ignored
Unknown variable 'Beta[V3_impression,2]' in MIP start 0 - ignored
Unknown variable 'Beta[V3_news,1]' in MIP start 0 - ignored
Unknown variable 'Beta[V3_news,2]' in MIP start 0 - ignored
Unknown variable 'Beta[V3_political,1]' in MIP start 0 - ignored
Unknown variable 'Beta[V3_political,2]' in MIP start 0 - ignored
Unknown variable 'Beta[V3_scientific,1]' in MIP start 0 - ignored
Unknown variable 'Beta[V3_scientific,2]' in MIP start 0 - ignored
Unknown variable 'Beta[V3_tourism,1]' in MIP start 0 - ignored
Unknown variable 'Beta[V3_tourism,2]' in MIP start 0 - ignored
Unknown variable 'Beta[V4_yes,1]' in MIP start 0 - ignored
Unknown variable 'Beta[V4_yes,2]' in MIP start 0 - ignored
Unknown variable 'Beta[V5_yes,1]' in MIP start 0 - ignored
Unknown variable 'Beta[V5_yes,2]' in MIP start 0 - ignored
Unknown variable 'Beta_abs[V1_high,1]' in MIP start 0 - ignored
Unknown variable 'Beta_abs[V1_high,2]' in MIP start 0 - ignored
Unknown variable 'Beta_abs[V1_low,1]' in MIP start 0 - ignored
Unknown variable 'Beta_abs[V1_low,2]' in MIP start 0 - ignored
Unknown variable 'Beta_abs[V1_medium,1]' in MIP start 0 - ignored
Unknown variable 'Beta_abs[V1_medium,2]' in MIP start 0 - ignored
Unknown variable 'Beta_abs[V2_left,1]' in MIP start 0 - ignored
Unknown variable 'Beta_abs[V2_left,2]' in MIP start 0 - ignored
Unknown variable 'Beta_abs[V2_middle,1]' in MIP start 0 - ignored
Unknown variable 'Beta_abs[V2_middle,2]' in MIP start 0 - ignored
Unknown variable 'Beta_abs[V2_right,1]' in MIP start 0 - ignored
Unknown variable 'Beta_abs[V2_right,2]' in MIP start 0 - ignored
Unknown variable 'Beta_abs[V3_impression,1]' in MIP start 0 - ignored
Unknown variable 'Beta_abs[V3_impression,2]' in MIP start 0 - ignored
Unknown variable 'Beta_abs[V3_news,1]' in MIP start 0 - ignored
Unknown variable 'Beta_abs[V3_news,2]' in MIP start 0 - ignored
Unknown variable 'Beta_abs[V3_political,1]' in MIP start 0 - ignored
Unknown variable 'Beta_abs[V3_political,2]' in MIP start 0 - ignored
Unknown variable 'Beta_abs[V3_scientific,1]' in MIP start 0 - ignored
Unknown variable 'Beta_abs[V3_scientific,2]' in MIP start 0 - ignored
Unknown variable 'Beta_abs[V3_tourism,1]' in MIP start 0 - ignored
Unknown variable 'Beta_abs[V3_tourism,2]' in MIP start 0 - ignored
Unknown variable 'Beta_abs[V4_yes,1]' in MIP start 0 - ignored
Unknown variable 'Beta_abs[V4_yes,2]' in MIP start 0 - ignored
Unknown variable 'Beta_abs[V5_yes,1]' in MIP start 0 - ignored
Unknown variable 'Beta_abs[V5_yes,2]' in MIP start 0 - ignored
Read MIP start from file WarmStarts/blogger_2.mst
Gurobi Optimizer version 11.0.0 build v11.0.0rc2 (mac64[arm] - Darwin 23.4.0 23E224)

CPU model: Apple M3 Pro
Thread count: 11 physical cores, 11 logical processors, using up to 11 threads

Optimize a model with 130 rows, 67 columns and 383 nonzeros
Model fingerprint: 0x64780091
Variable types: 0 continuous, 67 integer (63 binary)
Coefficient statistics:
  Matrix range     [1e+00, 6e+01]
  Objective range  [1e+00, 1e+00]
  Bounds range     [1e+00, 1e+00]
  RHS range        [1e+00, 6e+01]

No start values specified in MIP start

Found heuristic solution: objective 25.0000000
Presolve removed 130 rows and 67 columns
Presolve time: 0.00s
Presolve: All rows and columns removed

Explored 0 nodes (0 simplex iterations) in 0.00 seconds (0.00 work units)
Thread count was 1 (of 11 available processors)

Solution count 1: 25 

Optimal solution found (tolerance 1.00e-04)
Best objective 2.500000000000e+01, best bound 2.500000000000e+01, gap 0.0000%

Gurobi 11.0.0 (mac64[arm]) logging started Fri Apr 19 16:16:08 2024

Set parameter LogFile to value "GurobiLogs/blogger_2.txt"
Set parameter TimeLimit to value 3600
Read MIP start from file WarmStarts/blogger_2.mst
Gurobi Optimizer version 11.0.0 build v11.0.0rc2 (mac64[arm] - Darwin 23.4.0 23E224)

CPU model: Apple M3 Pro
Thread count: 11 physical cores, 11 logical processors, using up to 11 threads

Optimize a model with 130 rows, 67 columns and 383 nonzeros
Model fingerprint: 0x40d4825e
Variable types: 0 continuous, 67 integer (63 binary)
Coefficient statistics:
  Matrix range     [1e+00, 6e+01]
  Objective range  [1e+00, 1e+00]
  Bounds range     [1e+00, 1e+00]
  RHS range        [1e+00, 6e+01]

Loaded user MIP start with objective 25

Presolve removed 130 rows and 67 columns
Presolve time: 0.00s
Presolve: All rows and columns removed

Explored 0 nodes (0 simplex iterations) in 0.00 seconds (0.00 work units)
Thread count was 1 (of 11 available processors)

Solution count 1: 25 

Optimal solution found (tolerance 1.00e-04)
Best objective 2.500000000000e+01, best bound 2.500000000000e+01, gap 0.0000%

Gurobi 11.0.0 (mac64[arm]) logging started Fri Apr 19 16:16:08 2024

Set parameter LogFile to value "GurobiLogs/blogger_2.txt"
Set parameter TimeLimit to value 3600
Read MIP start from file WarmStarts/blogger_2.mst
Gurobi Optimizer version 11.0.0 build v11.0.0rc2 (mac64[arm] - Darwin 23.4.0 23E224)

CPU model: Apple M3 Pro
Thread count: 11 physical cores, 11 logical processors, using up to 11 threads

Optimize a model with 130 rows, 67 columns and 383 nonzeros
Model fingerprint: 0x40d4825e
Variable types: 0 continuous, 67 integer (63 binary)
Coefficient statistics:
  Matrix range     [1e+00, 6e+01]
  Objective range  [1e+00, 1e+00]
  Bounds range     [1e+00, 1e+00]
  RHS range        [1e+00, 6e+01]

Loaded user MIP start with objective 25

Presolve removed 130 rows and 67 columns
Presolve time: 0.00s
Presolve: All rows and columns removed

Explored 0 nodes (0 simplex iterations) in 0.00 seconds (0.00 work units)
Thread count was 1 (of 11 available processors)

Solution count 1: 25 

Optimal solution found (tolerance 1.00e-04)
Best objective 2.500000000000e+01, best bound 2.500000000000e+01, gap 0.0000%

Gurobi 11.0.0 (mac64[arm]) logging started Fri Apr 19 16:16:08 2024

Set parameter LogFile to value "GurobiLogs/blogger_2.txt"
Set parameter TimeLimit to value 3600
Read MIP start from file WarmStarts/blogger_2.mst
Gurobi Optimizer version 11.0.0 build v11.0.0rc2 (mac64[arm] - Darwin 23.4.0 23E224)

CPU model: Apple M3 Pro
Thread count: 11 physical cores, 11 logical processors, using up to 11 threads

Optimize a model with 130 rows, 67 columns and 383 nonzeros
Model fingerprint: 0x40d4825e
Variable types: 0 continuous, 67 integer (63 binary)
Coefficient statistics:
  Matrix range     [1e+00, 6e+01]
  Objective range  [1e+00, 1e+00]
  Bounds range     [1e+00, 1e+00]
  RHS range        [1e+00, 6e+01]

Loaded user MIP start with objective 25

Presolve removed 130 rows and 67 columns
Presolve time: 0.00s
Presolve: All rows and columns removed

Explored 0 nodes (0 simplex iterations) in 0.00 seconds (0.00 work units)
Thread count was 1 (of 11 available processors)

Solution count 1: 25 

Optimal solution found (tolerance 1.00e-04)
Best objective 2.500000000000e+01, best bound 2.500000000000e+01, gap 0.0000%

Gurobi 11.0.0 (mac64[arm]) logging started Fri Apr 19 16:16:08 2024

Set parameter LogFile to value "GurobiLogs/blogger_2.txt"
Set parameter TimeLimit to value 3600
Unknown variable 'z[12,0]' in MIP start 0 - ignored
Unknown variable 'z[53,0]' in MIP start 0 - ignored
Unknown variable 'z[87,0]' in MIP start 0 - ignored
Unknown variable 'z[54,0]' in MIP start 0 - ignored
Unknown variable 'z[95,0]' in MIP start 0 - ignored
Unknown variable 'z[32,0]' in MIP start 0 - ignored
Unknown variable 'z[19,0]' in MIP start 0 - ignored
Unknown variable 'z[26,0]' in MIP start 0 - ignored
Unknown variable 'z[60,0]' in MIP start 0 - ignored
Unknown variable 'z[55,0]' in MIP start 0 - ignored
Unknown variable 'z[9,0]' in MIP start 0 - ignored
Unknown variable 'z[96,0]' in MIP start 0 - ignored
Unknown variable 'z[17,0]' in MIP start 0 - ignored
Unknown variable 'z[59,0]' in MIP start 0 - ignored
Unknown variable 'z[57,0]' in MIP start 0 - ignored
Unknown variable 'z[41,0]' in MIP start 0 - ignored
Unknown variable 'z[64,0]' in MIP start 0 - ignored
Unknown variable 'z[45,0]' in MIP start 0 - ignored
Unknown variable 'z[97,0]' in MIP start 0 - ignored
Unknown variable 'z[8,0]' in MIP start 0 - ignored
Unknown variable 'z[71,0]' in MIP start 0 - ignored
Unknown variable 'z[94,0]' in MIP start 0 - ignored
Unknown variable 'z[90,0]' in MIP start 0 - ignored
Unknown variable 'z[98,0]' in MIP start 0 - ignored
Unknown variable 'z[86,0]' in MIP start 0 - ignored
Unknown variable 'z[80,0]' in MIP start 0 - ignored
Unknown variable 'z[50,0]' in MIP start 0 - ignored
Unknown variable 'z[52,0]' in MIP start 0 - ignored
Unknown variable 'z[66,0]' in MIP start 0 - ignored
Unknown variable 'z[88,0]' in MIP start 0 - ignored
Unknown variable 'z[70,0]' in MIP start 0 - ignored
Unknown variable 'z[46,0]' in MIP start 0 - ignored
Unknown variable 'z[68,0]' in MIP start 0 - ignored
Unknown variable 'z[69,0]' in MIP start 0 - ignored
Unknown variable 'z[81,0]' in MIP start 0 - ignored
Unknown variable 'z[58,0]' in MIP start 0 - ignored
Unknown variable 'z[33,0]' in MIP start 0 - ignored
Unknown variable 'z[38,0]' in MIP start 0 - ignored
Unknown variable 'z[51,0]' in MIP start 0 - ignored
Unknown variable 'z[42,0]' in MIP start 0 - ignored
Unknown variable 'z[4,0]' in MIP start 0 - ignored
Unknown variable 'z[67,0]' in MIP start 0 - ignored
Unknown variable 'z[39,0]' in MIP start 0 - ignored
Unknown variable 'z[37,0]' in MIP start 0 - ignored
Unknown variable 'z[20,0]' in MIP start 0 - ignored
Unknown variable 'z[31,0]' in MIP start 0 - ignored
Unknown variable 'z[63,0]' in MIP start 0 - ignored
Unknown variable 'z[47,0]' in MIP start 0 - ignored
Unknown variable 'z[85,0]' in MIP start 0 - ignored
Unknown variable 'z[93,0]' in MIP start 0 - ignored
Unknown variable 'z[49,0]' in MIP start 0 - ignored
Unknown variable 'z[34,0]' in MIP start 0 - ignored
Unknown variable 'z[7,0]' in MIP start 0 - ignored
Unknown variable 'z[75,0]' in MIP start 0 - ignored
Unknown variable 'z[82,0]' in MIP start 0 - ignored
Unknown variable 'z[43,0]' in MIP start 0 - ignored
Unknown variable 'z[22,0]' in MIP start 0 - ignored
Unknown variable 'z[72,0]' in MIP start 0 - ignored
Unknown variable 'z[15,0]' in MIP start 0 - ignored
Unknown variable 'z[40,0]' in MIP start 0 - ignored
Unknown variable 'l[0]' in MIP start 0 - ignored
Unknown variable 'c[-1.0,0]' in MIP start 0 - ignored
Unknown variable 'c[1.0,0]' in MIP start 0 - ignored
Unknown variable 'n_k[-1.0,0]' in MIP start 0 - ignored
Unknown variable 'n_k[1.0,0]' in MIP start 0 - ignored
Unknown variable 'N[0]' in MIP start 0 - ignored
Unknown variable 'L[0]' in MIP start 0 - ignored
Read MIP start from file WarmStarts/blogger_2.mst
Gurobi Optimizer version 11.0.0 build v11.0.0rc2 (mac64[arm] - Darwin 23.4.0 23E224)

CPU model: Apple M3 Pro
Thread count: 11 physical cores, 11 logical processors, using up to 11 threads

Optimize a model with 324 rows, 149 columns and 2589 nonzeros
Model fingerprint: 0xbf179a80
Variable types: 1 continuous, 148 integer (140 binary)
Coefficient statistics:
  Matrix range     [6e-02, 6e+01]
  Objective range  [1e+00, 1e+00]
  Bounds range     [1e+00, 1e+00]
  RHS range        [1e+00, 6e+01]

No start values specified in MIP start

Found heuristic solution: objective 25.0000000
Presolve removed 128 rows and 67 columns
Presolve time: 0.00s
Presolved: 196 rows, 82 columns, 1919 nonzeros
Variable types: 1 continuous, 81 integer (76 binary)

Root relaxation: objective 0.000000e+00, 15 iterations, 0.00 seconds (0.00 work units)

    Nodes    |    Current Node    |     Objective Bounds      |     Work
 Expl Unexpl |  Obj  Depth IntInf | Incumbent    BestBd   Gap | It/Node Time

     0     0    0.00000    0   12   25.00000    0.00000   100%     -    0s
     0     0    0.00000    0   22   25.00000    0.00000   100%     -    0s
     0     0    0.00000    0   32   25.00000    0.00000   100%     -    0s
H    0     0                      20.0000000    0.00000   100%     -    0s
H    0     0                      19.0000000    0.00000   100%     -    0s
     0     0   19.00000    0    2   19.00000   19.00000  0.00%     -    0s

Cutting planes:
  Learned: 16
  Gomory: 8
  Cover: 27
  Clique: 8
  MIR: 22
  StrongCG: 6
  GUB cover: 7

Explored 1 nodes (197 simplex iterations) in 0.15 seconds (0.03 work units)
Thread count was 11 (of 11 available processors)

Solution count 3: 19 20 25 

Optimal solution found (tolerance 1.00e-04)
Best objective 1.900000000000e+01, best bound 1.900000000000e+01, gap 0.0000%

Gurobi 11.0.0 (mac64[arm]) logging started Fri Apr 19 16:16:08 2024

Set parameter LogFile to value "GurobiLogs/blogger_2.txt"
Set parameter TimeLimit to value 3600
Read MIP start from file WarmStarts/blogger_2.mst
Gurobi Optimizer version 11.0.0 build v11.0.0rc2 (mac64[arm] - Darwin 23.4.0 23E224)

CPU model: Apple M3 Pro
Thread count: 11 physical cores, 11 logical processors, using up to 11 threads

Optimize a model with 324 rows, 149 columns and 2589 nonzeros
Model fingerprint: 0x2c1b82ab
Variable types: 1 continuous, 148 integer (140 binary)
Coefficient statistics:
  Matrix range     [6e-02, 6e+01]
  Objective range  [1e+00, 1e+00]
  Bounds range     [1e+00, 1e+00]
  RHS range        [1e+00, 6e+01]

User MIP start produced solution with objective 19 (0.00s)
Loaded user MIP start with objective 19

Presolve removed 128 rows and 67 columns
Presolve time: 0.00s
Presolved: 196 rows, 82 columns, 1919 nonzeros
Variable types: 1 continuous, 81 integer (76 binary)

Root relaxation: objective 0.000000e+00, 20 iterations, 0.00 seconds (0.00 work units)

    Nodes    |    Current Node    |     Objective Bounds      |     Work
 Expl Unexpl |  Obj  Depth IntInf | Incumbent    BestBd   Gap | It/Node Time

     0     0    0.00000    0   18   19.00000    0.00000   100%     -    0s
     0     0   19.00000    0   30   19.00000   19.00000  0.00%     -    0s

Cutting planes:
  Learned: 3
  Gomory: 10
  Cover: 34
  Implied bound: 1
  Clique: 3
  MIR: 29
  StrongCG: 2
  GUB cover: 16
  Relax-and-lift: 1

Explored 1 nodes (107 simplex iterations) in 0.10 seconds (0.03 work units)
Thread count was 11 (of 11 available processors)

Solution count 1: 19 

Optimal solution found (tolerance 1.00e-04)
Best objective 1.900000000000e+01, best bound 1.900000000000e+01, gap 0.0000%

Gurobi 11.0.0 (mac64[arm]) logging started Fri Apr 19 16:16:08 2024

Set parameter LogFile to value "GurobiLogs/blogger_2.txt"
Set parameter TimeLimit to value 3600
Read MIP start from file WarmStarts/blogger_2.mst
Gurobi Optimizer version 11.0.0 build v11.0.0rc2 (mac64[arm] - Darwin 23.4.0 23E224)

CPU model: Apple M3 Pro
Thread count: 11 physical cores, 11 logical processors, using up to 11 threads

Optimize a model with 324 rows, 149 columns and 2589 nonzeros
Model fingerprint: 0x2c1b82ab
Variable types: 1 continuous, 148 integer (140 binary)
Coefficient statistics:
  Matrix range     [6e-02, 6e+01]
  Objective range  [1e+00, 1e+00]
  Bounds range     [1e+00, 1e+00]
  RHS range        [1e+00, 6e+01]

User MIP start produced solution with objective 19 (0.01s)
Loaded user MIP start with objective 19

Presolve removed 128 rows and 67 columns
Presolve time: 0.00s
Presolved: 196 rows, 82 columns, 1919 nonzeros
Variable types: 1 continuous, 81 integer (76 binary)

Root relaxation: objective 0.000000e+00, 20 iterations, 0.00 seconds (0.00 work units)

    Nodes    |    Current Node    |     Objective Bounds      |     Work
 Expl Unexpl |  Obj  Depth IntInf | Incumbent    BestBd   Gap | It/Node Time

     0     0    0.00000    0   18   19.00000    0.00000   100%     -    0s
     0     0   19.00000    0   30   19.00000   19.00000  0.00%     -    0s

Cutting planes:
  Learned: 3
  Gomory: 10
  Cover: 34
  Implied bound: 1
  Clique: 3
  MIR: 29
  StrongCG: 2
  GUB cover: 16
  Relax-and-lift: 1

Explored 1 nodes (107 simplex iterations) in 0.09 seconds (0.03 work units)
Thread count was 11 (of 11 available processors)

Solution count 1: 19 

Optimal solution found (tolerance 1.00e-04)
Best objective 1.900000000000e+01, best bound 1.900000000000e+01, gap 0.0000%

Gurobi 11.0.0 (mac64[arm]) logging started Fri Apr 19 16:16:08 2024

Set parameter LogFile to value "GurobiLogs/blogger_2.txt"
Set parameter TimeLimit to value 3600
Read MIP start from file WarmStarts/blogger_2.mst
Gurobi Optimizer version 11.0.0 build v11.0.0rc2 (mac64[arm] - Darwin 23.4.0 23E224)

CPU model: Apple M3 Pro
Thread count: 11 physical cores, 11 logical processors, using up to 11 threads

Optimize a model with 324 rows, 149 columns and 2589 nonzeros
Model fingerprint: 0x2c1b82ab
Variable types: 1 continuous, 148 integer (140 binary)
Coefficient statistics:
  Matrix range     [6e-02, 6e+01]
  Objective range  [1e+00, 1e+00]
  Bounds range     [1e+00, 1e+00]
  RHS range        [1e+00, 6e+01]

User MIP start produced solution with objective 19 (0.00s)
Loaded user MIP start with objective 19

Presolve removed 128 rows and 67 columns
Presolve time: 0.00s
Presolved: 196 rows, 82 columns, 1919 nonzeros
Variable types: 1 continuous, 81 integer (76 binary)

Root relaxation: objective 0.000000e+00, 20 iterations, 0.00 seconds (0.00 work units)

    Nodes    |    Current Node    |     Objective Bounds      |     Work
 Expl Unexpl |  Obj  Depth IntInf | Incumbent    BestBd   Gap | It/Node Time

     0     0    0.00000    0   18   19.00000    0.00000   100%     -    0s
     0     0   19.00000    0   30   19.00000   19.00000  0.00%     -    0s

Cutting planes:
  Learned: 3
  Gomory: 10
  Cover: 34
  Implied bound: 1
  Clique: 3
  MIR: 29
  StrongCG: 2
  GUB cover: 16
  Relax-and-lift: 1

Explored 1 nodes (107 simplex iterations) in 0.20 seconds (0.03 work units)
Thread count was 11 (of 11 available processors)

Solution count 1: 19 

Optimal solution found (tolerance 1.00e-04)
Best objective 1.900000000000e+01, best bound 1.900000000000e+01, gap 0.0000%
